==> MAXTIME              = 3600
==> VARSELECTION         = 2
==> OUTPUTLOG            = 1
FICO Xpress v8.5.9, solve started 23:54:26, Jun 8, 2019
Maximizing MILP Seating model
Original problem has:
       230 rows          300 cols         7440 elements       300 globals
Presolved problem has:
       103 rows          204 cols         2431 elements       198 globals
LP relaxation tightened
Will try to keep branch and bound tree memory usage below 7.2GB
 *** Heuristic solution found:    22.000000      Time: 0 ***
Starting concurrent solve with dual

 Concurrent-Solve,   0s
            Dual        
    objective   dual inf
 D  102.00000   .0000000
------- optimal --------
Concurrent statistics:
      Dual: 34 simplex iterations, 0.00s
Optimal solution found
 
   Its         Obj Value      S   Ninf  Nneg   Sum Dual Inf  Time
    34        102.000000      D      0     0        .000000     0
Dual solved problem
  34 simplex iterations in 0s

Final objective                         : 1.020000000000000e+02
  Max primal violation      (abs / rel) : 1.110e-16 / 9.869e-17
  Max dual violation        (abs / rel) :       0.0 /       0.0
  Max complementarity viol. (abs / rel) :       0.0 /       0.0
All values within tolerances

Starting root cutting & heuristics
 
 Its Type    BestSoln    BestBound   Sols    Add    Del     Gap     GInf   Time
   1  K     22.000000   102.000000      1     99      0   78.43%      29      0
   2  K     22.000000   102.000000      1    111     81   78.43%      43      0
   3  K     22.000000   102.000000      1     92    101   78.43%      48      0
b           28.000000   102.000000      2                 72.55%       0      0
   4  K     28.000000   102.000000      2     87     94   72.55%      35      0
   5  K     28.000000   102.000000      2    100     83   72.55%      49      0
   6  K     28.000000   102.000000      2     93     97   72.55%      47      0
   7  K     28.000000   102.000000      2     89     88   72.55%      58      0
b           35.000000   102.000000      3                 65.69%       0      0
   8  K     35.000000   102.000000      3     81     91   65.69%      37      0
   9  K     35.000000   102.000000      3     95     87   65.69%      48      0
  10  K     35.000000   102.000000      3     97     89   65.69%      58      0
  11  K     35.000000   102.000000      3     83     86   65.69%      67      0
  12  K     35.000000   102.000000      3     93     82   65.69%      72      0
  13  K     35.000000   102.000000      3     87     85   65.69%      76      0
  14  K     35.000000   102.000000      3      2     83   65.69%      39      0
  15  K     35.000000   102.000000      3      1      7   65.69%      39      0
  16  K     35.000000   102.000000      3      1     13   65.69%      39      0
  17  K     35.000000   102.000000      3     96      8   65.69%      58      0
  18  K     35.000000   102.000000      3      2     91   65.69%      39      0
b           47.000000   102.000000      4                 53.92%       0      0
  19  K     47.000000   102.000000      4     93     14   53.92%      52      0
  20  K     47.000000   102.000000      4     99    150   53.92%      59      0
  21  G     47.000000   102.000000      4     39     31   53.92%      41      0
  22  G     47.000000   102.000000      4     70    110   53.92%      55      0
Heuristic search started
Heuristic search stopped
 
Cuts in the matrix         : 39
Cut elements in the matrix : 1106
 
Starting tree search.
Deterministic mode with up to 4 running threads and up to 8 tasks.
 
    Node     BestSoln    BestBound   Sols Active  Depth     Gap     GInf   Time
       1    47.000000   102.000000      4      2      1   53.92%      45      0
       2    47.000000   102.000000      4      2      2   53.92%      57      0
       3    47.000000   102.000000      4      2      3   53.92%      45      0
       4    47.000000   102.000000      4      2      2   53.92%      36      0
       5    47.000000   102.000000      4      2      3   53.92%      47      0
       6    47.000000   102.000000      4      2      4   53.92%      44      0
       7    47.000000   102.000000      4      5      3   53.92%      47      0
       8    47.000000   102.000000      4      5      4   53.92%      28      0
       9    47.000000   102.000000      4      8      4   53.92%      49      0
      10    47.000000   102.000000      4      8      4   53.92%      43      0
      20    47.000000   102.000000      4     17      7   53.92%      37      0
      34    47.000000   102.000000      4     17     16   53.92%      22      0
      44    47.000000   102.000000      4     17     23   53.92%      10      0
      58    47.000000   102.000000      4     27     13   53.92%      47      0
      71    47.000000   102.000000      4     27     16   53.92%      27      0
      85    47.000000   102.000000      4     27     25   53.92%      18      0
     103    47.000000   102.000000      4     27     23   53.92%      21      0
a    157    50.000000   102.000000      5     27     25   50.98%       0      0
a    159    51.000000   102.000000      6     27     26   50.00%       0      0
B&B tree size: 1.2MB total
 
    Node     BestSoln    BestBound   Sols Active  Depth     Gap     GInf   Time
a    208    54.000000   102.000000      7     48     26   47.06%       0      1
     209    54.000000   102.000000      7     48     26   47.06%       6      1
     314    54.000000   102.000000      7     80     10   47.06%      22      1
     414    54.000000   102.000000      7    113     24   47.06%      20      1
     530    54.000000   102.000000      7    126     19   47.06%      16      1
     634    54.000000   102.000000      7    126     16   47.06%      15      1
a    657    58.000000   102.000000      8    126     19   43.14%       0      1
     747    58.000000   102.000000      8    130     18   43.14%      22      1
     853    58.000000   102.000000      8    168     19   43.14%       9      1
     964    58.000000   102.000000      8    236     22   43.14%      19      1
    1069    58.000000   102.000000      8    290      1   43.14%       1      1
a   1149    59.000000   102.000000      9    290     19   42.16%       0      1
    1172    59.000000   102.000000      9    290     16   42.16%      27      1
    1275    59.000000   102.000000      9    290     21   42.16%      17      1
    1377    59.000000   102.000000      9    290     20   42.16%      30      2
    1494    59.000000   102.000000      9    290     15   42.16%      49      2
    1597    59.000000   102.000000      9    290     16   42.16%      23      2
    1700    59.000000   102.000000      9    348     18   42.16%      23      2
    1800    59.000000   100.758758      9    555      1   41.44%       1      2
    1910    59.000000   100.758758      9    555     12   41.44%      27      2
B&B tree size: 5.5MB total
 
    Node     BestSoln    BestBound   Sols Active  Depth     Gap     GInf   Time
    2018    59.000000   100.758758      9    555     19   41.44%      40      2
    2132    59.000000   100.758758      9    591     23   41.44%      41      2
    2242    59.000000   100.758758      9    591     16   41.44%      43      2
    2350    59.000000   100.758758      9    591     23   41.44%      32      2
    2464    59.000000   100.758758      9    591     24   41.44%      17      2
    2573    59.000000   100.758758      9    591     12   41.44%      37      2
    2682    59.000000   100.758758      9    644     16   41.44%      34      3
    2787    59.000000   100.758758      9    644     14   41.44%      44      3
    2900    59.000000   100.758758      9    644     18   41.44%      32      3
    3008    59.000000   100.758758      9    712     16   41.44%      35      3
    3110    59.000000   100.758758      9    712     31   41.44%      19      3
    3220    59.000000   100.758758      9    769     18   41.44%      32      3
    3328    59.000000   100.758758      9    769     13   41.44%      35      3
    3429    59.000000   100.758758      9    769     22   41.44%      29      3
    3536    59.000000   100.758758      9    769     18   41.44%      42      3
    3652    59.000000   100.758758      9    769     23   41.44%      15      3
    3754    59.000000   100.758758      9    844     18   41.44%      33      3
    3870    59.000000   100.758758      9    924     14   41.44%      27      3
a   3936    60.000000   100.758758     10    924     19   40.45%       0      3
    3990    60.000000   100.758758     10    909     21   40.45%      24      3
B&B tree size: 9.8MB total
 
    Node     BestSoln    BestBound   Sols Active  Depth     Gap     GInf   Time
    4105    60.000000   100.758758     10    909     17   40.45%      46      4
    4211    60.000000   100.758758     10   1027     20   40.45%      14      4
    4314    60.000000   100.758758     10   1027     20   40.45%      11      4
    4417    60.000000   100.758758     10   1027     26   40.45%      29      4
    4520    60.000000   100.758758     10   1027     20   40.45%      37      4
    4624    60.000000   100.758758     10   1027     22   40.45%      39      4
    4736    60.000000   100.758758     10   1027     20   40.45%      29      4
    4846    60.000000   100.758758     10   1027     25   40.45%      12      4
    4958    60.000000   100.758758     10   1027     15   40.45%      16      4
    5074    60.000000   100.758758     10   1056     19   40.45%      33      4
    5179    60.000000   100.758758     10   1056     16   40.45%      36      4
    5281    60.000000   100.758758     10   1056     23   40.45%      30      4
    5387    60.000000   100.758758     10   1056     26   40.45%      32      4
    5504    60.000000   100.758758     10   1184     21   40.45%      34      5
    5613    60.000000   100.758758     10   1257     16   40.45%      25      5
    5715    60.000000   100.758758     10   1391      1   40.45%       1      5
    5824    60.000000   100.758758     10   1391     20   40.45%      32      5
    5926    60.000000    99.465345     10   1737      1   39.68%       1      5
    6044    60.000000    99.465345     10   1737     16   39.68%      35      5
    6155    60.000000    99.465345     10   1737     20   39.68%      40      5
B&B tree size: 14MB total
 
    Node     BestSoln    BestBound   Sols Active  Depth     Gap     GInf   Time
    6273    60.000000    99.465345     10   1756     24   39.68%      17      5
    6384    60.000000    99.465345     10   1756     28   39.68%      24      5
    6500    60.000000    99.465345     10   1772     20   39.68%      28      5
    6609    60.000000    99.465345     10   1772     27   39.68%      25      5
    6709    60.000000    99.465345     10   1886     10   39.68%      45      5
    6824    60.000000    99.465345     10   1886     21   39.68%      16      5
    6924    60.000000    96.867978     10   1919     16   38.06%      31      6
    7029    60.000000    96.867978     10   1919     16   38.06%      29      6
    7144    60.000000    96.867978     10   1919     22   38.06%      19      6
    7256    60.000000    96.867978     10   1919     17   38.06%      22      6
    7358    60.000000    96.867978     10   1919     18   38.06%      36      6
    7461    60.000000    96.867978     10   1933     20   38.06%      23      6
    7568    60.000000    96.867978     10   1933     20   38.06%      35      6
    7675    60.000000    96.867978     10   1933     18   38.06%      21      6
    7776    60.000000    96.867978     10   1982     16   38.06%      36      6
    7877    60.000000    96.867978     10   2080     21   38.06%      42      6
    7991    60.000000    93.559593     10   2144     17   35.87%      27      6
    8095    60.000000    93.559593     10   2197     18   35.87%      30      6
    8212    60.000000    93.559593     10   2267     19   35.87%      34      7
    8314    60.000000    93.559593     10   2303     23   35.87%      31      7
B&B tree size: 18MB total
 
    Node     BestSoln    BestBound   Sols Active  Depth     Gap     GInf   Time
    8439    60.000000    88.637644     10   2362     25   32.31%      28      7
    8540    60.000000    88.637644     10   2362     22   32.31%      30      7
    8643    60.000000    88.637644     10   2362     28   32.31%      29      7
    8754    60.000000    88.637644     10   2362     21   32.31%      30      7
    8867    60.000000    88.637644     10   2362     17   32.31%      21      7
    8972    60.000000    88.637644     10   2380     22   32.31%      33      7
    9075    60.000000    88.637644     10   2430     16   32.31%      38      7
    9183    60.000000    88.637644     10   2430     20   32.31%      43      7
    9288    60.000000    88.637644     10   2430     16   32.31%      44      7
    9388    60.000000    88.637644     10   2449     22   32.31%      10      7
    9494    60.000000    88.637644     10   2449     21   32.31%      52      7
    9601    60.000000    88.229320     10   2484     16   32.00%      30      7
    9705    60.000000    88.229320     10   2501     27   32.00%      31      8
    9815    60.000000    84.104465     10   2533     23   28.66%      26      8
    9931    60.000000    84.104465     10   2533     20   28.66%      44      8
   10040    60.000000    84.104465     10   2533     16   28.66%      30      8
   11055    60.000000    82.617188     10   2748     21   27.38%      37      9
   12057    60.000000    82.120507     10   2844     15   26.94%      34      9
   13067    60.000000    82.000000     10   2943     19   26.83%      31     10
   14075    60.000000    82.000000     10   3106     17   26.83%      26     10
B&B tree size: 25MB total
 
    Node     BestSoln    BestBound   Sols Active  Depth     Gap     GInf   Time
   15075    60.000000    82.000000     10   3165     16   26.83%      27     11
   16089    60.000000    79.197531     10   3238     21   24.24%      27     12
   17093    60.000000    78.345803     10   3289     23   23.42%      33     12
   18106    60.000000    78.000000     10   3347     17   23.08%      13     13
   19125    60.000000    77.992327     10   3413     21   23.07%      30     13
   20135    60.000000    77.038028     10   3483     19   22.12%      36     14
   21141    60.000000    77.000000     10   3566     29   22.08%      17     15
   22145    60.000000    76.891379     10   3581     25   21.97%      27     15
   23156    60.000000    76.000886     10   3589     27   21.05%      14     16
   24164    60.000000    75.444037     10   3585     25   20.47%      21     17
   25173    60.000000    75.150973     10   3569     18   20.16%      49     17
   26178    60.000000    74.715952     10   3571     16   19.70%      19     18
   27181    60.000000    74.111111     10   3534     25   19.04%      40     18
   28192    60.000000    73.432868     10   3497     20   18.29%      34     19
   29196    60.000000    73.078025     10   3443     25   17.90%      24     19
   30205    60.000000    73.000000     10   3394     23   17.81%      39     20
   31209    60.000000    72.579965     10   3322     22   17.33%      32     20
   32225    60.000000    71.859212     10   3240     14   16.50%      35     21
   33228    60.000000    71.503011     10   3160     24   16.09%      17     22
   34236    60.000000    70.836515     10   3096     19   15.30%      30     22
B&B tree size: 31MB total
 
    Node     BestSoln    BestBound   Sols Active  Depth     Gap     GInf   Time
   35237    60.000000    70.231636     10   2943     28   14.57%      33     23
   36237    60.000000    70.000000     10   2863     17   14.29%      24     23
   37239    60.000000    69.490654     10   2737     18   13.66%      26     24
   38260    60.000000    69.000000     10   2587     33   13.04%      29     24
   39272    60.000000    68.471348     10   2408     23   12.37%      19     25
   40276    60.000000    68.000000     10   2190     26   11.76%      27     25
   41276    60.000000    67.111111     10   1979     14   10.60%      33     26
   42276    60.000000    66.121067     10   1655     17    9.26%      59     26
   43278    60.000000    65.192896     10   1234     19    7.97%      22     26
   44280    60.000000    63.669820     10    681     24    5.76%       8     27
   45280    60.000000    62.000000     10    134     20    3.23%      45     27
 *** Search completed ***     Time:    27 Nodes:      45613
Number of integer feasible solutions found is 10
Best integer solution found is    60.000000
Best bound is    60.000000
Uncrunching matrix
